set CITIES:= KhatimaP ThanoP BanbasaP HaldwaniP	RanipokhariP SitarganjP	KichhaP	RudrapurP DoiwalaP SelakuiP RoorkeeP SrinagarP KotdwarP	HaridwarP PithoragarhP KhatimaDC RishikeshDC ChampawatDC HaldwaniDC DehradunDC SitarganjDC KichhaDC RudrapurDC BareillyDC SelakuiDC RoorkeeDC SrinagarDC KotdwarDC HaridwarDC PithoragarhDC PilibhitDC DelhiDC 
;
param DISTANCE:=
KhatimaP	KhatimaP	0
KhatimaP	ThanoP	        320
KhatimaP	BanbasaP	30
KhatimaP	HaldwaniP	80
KhatimaP	RanipokhariP	300
KhatimaP	SitarganjP	30
KhatimaP	KichhaP	        55
KhatimaP	RudrapurP	70
KhatimaP	DoiwalaP	310
KhatimaP	SelakuiP	350
KhatimaP	RoorkeeP	310
KhatimaP	SrinagarP	410
KhatimaP	KotdwarP	255
KhatimaP	HaridwarP	280
KhatimaP	PithoragarhP	200
KhatimaP	KhatimaDC	15
KhatimaP	RishikeshDC	300
KhatimaP	ChampawatDC	120
KhatimaP	HaldwaniDC	80
KhatimaP	DehradunDC	330
KhatimaP	SitarganjDC	30
KhatimaP	KichhaDC	55
KhatimaP	RudrapurDC	70
KhatimaP	BareillyDC	127
KhatimaP	SelakuiDC	350
KhatimaP	RoorkeeDC	310
KhatimaP	SrinagarDC	410
KhatimaP	KotdwarDC 	255
KhatimaP	HaridwarDC	280
KhatimaP	PithoragarhDC	200
KhatimaP	PilibhitDC	54
KhatimaP	DelhiDC	        330
ThanoP	        KhatimaP	320
ThanoP	        ThanoP	        10000
ThanoP	        BanbasaP	330
ThanoP	        HaldwaniP	265
ThanoP	        RanipokhariP	10
ThanoP	        SitarganjP	290
ThanoP	        KichhaP	        260
ThanoP	        RudrapurP	250
ThanoP	        DoiwalaP	15
ThanoP	        SelakuiP	50
ThanoP	        RoorkeeP	75
ThanoP	        SrinagarP	150
ThanoP	        KotdwarP	110
ThanoP	        HaridwarP	50
ThanoP	        PithoragarhP	490
ThanoP	        KhatimaDC	315
ThanoP	        RishikeshDC	30
ThanoP	        ChampawatDC	410
ThanoP	        HaldwaniDC	265
ThanoP	        DehradunDC	30
ThanoP	        SitarganjDC     290
ThanoP	        KichhaDC	260
ThanoP	        RudrapurDC	250
ThanoP	        BareillyDC	310
ThanoP	        SelakuiDC	50
ThanoP	        RoorkeeDC	75
ThanoP	        SrinagarDC	150
ThanoP	        KotdwarDC 	110
ThanoP	        HaridwarDC	50
ThanoP	        PithoragarhDC	490
ThanoP	        PilibhitDC	330
ThanoP	        DelhiDC	        285
BanbasaP	KhatimaP	30
BanbasaP	ThanoP	        330
BanbasaP	BanbasaP	10000
BanbasaP	HaldwaniP	100
BanbasaP	RanipokhariP	330
BanbasaP	SitarganjP	45
BanbasaP	KichhaP	        70
BanbasaP	RudrapurP	85
BanbasaP	DoiwalaP	325
BanbasaP	SelakuiP	365
BanbasaP	RoorkeeP	325
BanbasaP	SrinagarP	425
BanbasaP	KotdwarP	270
BanbasaP	HaridwarP	295
BanbasaP	PithoragarhP	180
BanbasaP	KhatimaDC	30
BanbasaP	RishikeshDC	330
BanbasaP	ChampawatDC	100
BanbasaP	HaldwaniDC	100
BanbasaP	DehradunDC	345
BanbasaP	SitarganjDC	45
BanbasaP	KichhaDC	70
BanbasaP	RudrapurDC	85
BanbasaP	BareillyDC	100
BanbasaP	SelakuiDC	365
BanbasaP	RoorkeeDC	325
BanbasaP	SrinagarDC	425
BanbasaP	KotdwarDC 	270
BanbasaP	HaridwarDC	295
BanbasaP	PithoragarhDC	180
BanbasaP	PilibhitDC	65
BanbasaP	DelhiDC	        345
HaldwaniP	KhatimaP	80
HaldwaniP	ThanoP	        265
HaldwaniP	BanbasaP	100
HaldwaniP	HaldwaniP	10000
HaldwaniP	RanipokhariP	265
HaldwaniP	SitarganjP	50
HaldwaniP	KichhaP	        40
HaldwaniP	RudrapurP	35
HaldwaniP	DoiwalaP	260
HaldwaniP	SelakuiP	300
HaldwaniP	RoorkeeP	245
HaldwaniP	SrinagarP	360
HaldwaniP	KotdwarP	205
HaldwaniP	HaridwarP	230
HaldwaniP	PithoragarhP	245
HaldwaniP	KhatimaDC	80
HaldwaniP	RishikeshDC	250
HaldwaniP	ChampawatDC	175
HaldwaniP	HaldwaniDC	15
HaldwaniP	DehradunDC	280
HaldwaniP	SitarganjDC	50
HaldwaniP	KichhaDC	40
HaldwaniP	RudrapurDC	35
HaldwaniP	BareillyDC	100
HaldwaniP	SelakuiDC	300
HaldwaniP	RoorkeeDC	245
HaldwaniP	SrinagarDC	360
HaldwaniP	KotdwarDC 	205
HaldwaniP	HaridwarDC	230
HaldwaniP	PithoragarhDC	245
HaldwaniP	PilibhitDC	95
HaldwaniP	DelhiDC	        300
RanipokhariP	KhatimaP	300
RanipokhariP	ThanoP	        10
RanipokhariP	BanbasaP	330
RanipokhariP	HaldwaniP	265
RanipokhariP	RanipokhariP	10000
RanipokhariP	SitarganjP	285
RanipokhariP	KichhaP	        260
RanipokhariP	RudrapurP	250
RanipokhariP	DoiwalaP	10
RanipokhariP	SelakuiP	50
RanipokhariP	RoorkeeP	70
RanipokhariP	SrinagarP	120
RanipokhariP	KotdwarP	105
RanipokhariP	HaridwarP	40
RanipokhariP	PithoragarhP	480
RanipokhariP	KhatimaDC	320
RanipokhariP	RishikeshDC	20
RanipokhariP	ChampawatDC	410
RanipokhariP	HaldwaniDC	265
RanipokhariP	DehradunDC	30
RanipokhariP	SitarganjDC	285
RanipokhariP	KichhaDC	260
RanipokhariP	RudrapurDC	250
RanipokhariP	BareillyDC	300
RanipokhariP	SelakuiDC	50
RanipokhariP	RoorkeeDC	70
RanipokhariP	SrinagarDC	120
RanipokhariP	KotdwarDC 	105
RanipokhariP	HaridwarDC	40
RanipokhariP	PithoragarhDC	480
RanipokhariP	PilibhitDC	325
RanipokhariP	DelhiDC	        280
SitarganjP	KhatimaP	30
SitarganjP	ThanoP	        290
SitarganjP	BanbasaP	45
SitarganjP	HaldwaniP	50
SitarganjP	RanipokhariP	285
SitarganjP	SitarganjP	10000
SitarganjP	KichhaP	        25
SitarganjP	RudrapurP	40
SitarganjP	DoiwalaP	280
SitarganjP	SelakuiP	320
SitarganjP	RoorkeeP	280
SitarganjP	SrinagarP	380
SitarganjP	KotdwarP	225
SitarganjP	HaridwarP	250
SitarganjP	PithoragarhP	230
SitarganjP	KhatimaDC	30
SitarganjP	RishikeshDC	270
SitarganjP	ChampawatDC	150
SitarganjP	HaldwaniDC	50
SitarganjP	DehradunDC	300
SitarganjP	SitarganjDC	10
SitarganjP	KichhaDC	25
SitarganjP	RudrapurDC	40
SitarganjP	BareillyDC	85
SitarganjP	SelakuiDC	320
SitarganjP	RoorkeeDC	280
SitarganjP	SrinagarDC	380
SitarganjP	KotdwarDC 	225
SitarganjP	HaridwarDC	250
SitarganjP	PithoragarhDC	230
SitarganjP	PilibhitDC	80
SitarganjP	DelhiDC	        305
KichhaP	        KhatimaP	55
KichhaP	        ThanoP	        260
KichhaP	        BanbasaP	70
KichhaP	        HaldwaniP	40
KichhaP	        RanipokhariP	260
KichhaP	        SitarganjP	25
KichhaP	        KichhaP	        10000
KichhaP	        RudrapurP	15
KichhaP	        DoiwalaP	255
KichhaP	        SelakuiP	295
KichhaP	        RoorkeeP	255
KichhaP	        SrinagarP	355
KichhaP	        KotdwarP	200
KichhaP	        HaridwarP	225
KichhaP	        PithoragarhP	255
KichhaP	        KhatimaDC	55
KichhaP	        RishikeshDC	295
KichhaP	        ChampawatDC	175
KichhaP	        HaldwaniDC	25
KichhaP	        DehradunDC	275
KichhaP	        SitarganjDC	25
KichhaP	        KichhaDC	10
KichhaP	        RudrapurDC	15
KichhaP	        BareillyDC	65
KichhaP	        SelakuiDC	295
KichhaP	        RoorkeeDC	255
KichhaP	        SrinagarDC	355
KichhaP	        KotdwarDC 	200
KichhaP	        HaridwarDC	225
KichhaP	        PithoragarhDC	255
KichhaP	        PilibhitDC	105
KichhaP	        DelhiDC	        280
RudrapurP	KhatimaP	70
RudrapurP	ThanoP	        250
RudrapurP	BanbasaP	85
RudrapurP	HaldwaniP	35
RudrapurP	RanipokhariP	250
RudrapurP	SitarganjP	40
RudrapurP	KichhaP	        15
RudrapurP	RudrapurP	10000
RudrapurP	DoiwalaP	245
RudrapurP	SelakuiP	280
RudrapurP	RoorkeeP	240
RudrapurP	SrinagarP	340
RudrapurP	KotdwarP	185
RudrapurP	HaridwarP	210
RudrapurP	PithoragarhP	270
RudrapurP	KhatimaDC	70
RudrapurP	RishikeshDC	280
RudrapurP	ChampawatDC	19
RudrapurP	HaldwaniDC	32
RudrapurP	DehradunDC	260
RudrapurP	SitarganjDC	40
RudrapurP	KichhaDC	15
RudrapurP	RudrapurDC	10
RudrapurP	BareillyDC	80
RudrapurP	SelakuiDC	280
RudrapurP	RoorkeeDC	240
RudrapurP	SrinagarDC	340
RudrapurP	KotdwarDC 	185
RudrapurP	HaridwarDC	210
RudrapurP	PithoragarhDC	270
RudrapurP	PilibhitDC	120
RudrapurP	DelhiDC	        265
DoiwalaP	KhatimaP	310
DoiwalaP	ThanoP	        15
DoiwalaP	BanbasaP	325
DoiwalaP	HaldwaniP	260
DoiwalaP	RanipokhariP	10
DoiwalaP	SitarganjP	280
DoiwalaP	KichhaP	        255
DoiwalaP	RudrapurP	245
DoiwalaP	DoiwalaP	10000
DoiwalaP	SelakuiP	40
DoiwalaP	RoorkeeP	65
DoiwalaP	SrinagarP	130
DoiwalaP	KotdwarP	100
DoiwalaP	HaridwarP	35
DoiwalaP	PithoragarhP	475
DoiwalaP	KhatimaDC	310
DoiwalaP	RishikeshDC	25
DoiwalaP	ChampawatDC	405
DoiwalaP	HaldwaniDC	260
DoiwalaP	DehradunDC	20
DoiwalaP	SitarganjDC	280
DoiwalaP	KichhaDC	255
DoiwalaP	RudrapurDC	245
DoiwalaP	BareillyDC	300
DoiwalaP	SelakuiDC	40
DoiwalaP	RoorkeeDC	65
DoiwalaP	SrinagarDC	130
DoiwalaP	KotdwarDC 	100
DoiwalaP	HaridwarDC	35
DoiwalaP	PithoragarhDC	475
DoiwalaP	PilibhitDC	320
DoiwalaP	DelhiDC	        275
SelakuiP	KhatimaP	350
SelakuiP	ThanoP	        50
SelakuiP	BanbasaP	365
SelakuiP	HaldwaniP	300
SelakuiP	RanipokhariP	50
SelakuiP	SitarganjP	320
SelakuiP	KichhaP	        295
SelakuiP	RudrapurP	280
SelakuiP	DoiwalaP	40
SelakuiP	SelakuiP	10000
SelakuiP	RoorkeeP	90
SelakuiP	SrinagarP	170
SelakuiP	KotdwarP	140
SelakuiP	HaridwarP	75
SelakuiP	PithoragarhP	515
SelakuiP	KhatimaDC	350
SelakuiP	RishikeshDC	65
SelakuiP	ChampawatDC	445
SelakuiP	HaldwaniDC	300
SelakuiP	DehradunDC	20
SelakuiP	SitarganjDC	320
SelakuiP	KichhaDC	295
SelakuiP	RudrapurDC	280
SelakuiP	BareillyDC	355
SelakuiP	SelakuiDC	10
SelakuiP	RoorkeeDC	90
SelakuiP	SrinagarDC	170
SelakuiP	KotdwarDC 	140
SelakuiP	HaridwarDC	75
SelakuiP	PithoragarhDC	515
SelakuiP	PilibhitDC	360
SelakuiP	DelhiDC	        255
RoorkeeP	KhatimaP	310
RoorkeeP	ThanoP	        75
RoorkeeP	BanbasaP	325
RoorkeeP	HaldwaniP	245
RoorkeeP	RanipokhariP	70
RoorkeeP	SitarganjP	280
RoorkeeP	KichhaP	        255
RoorkeeP	RudrapurP	240
RoorkeeP	DoiwalaP	65
RoorkeeP	SelakuiP	90
RoorkeeP	RoorkeeP	10000
RoorkeeP	SrinagarP	160
RoorkeeP	KotdwarP	100
RoorkeeP	HaridwarP	32
RoorkeeP	PithoragarhP	450
RoorkeeP	KhatimaDC	285
RoorkeeP	RishikeshDC	52
RoorkeeP	ChampawatDC	380
RoorkeeP	HaldwaniDC	235
RoorkeeP	DehradunDC	70
RoorkeeP	SitarganjDC	255
RoorkeeP	KichhaDC	230
RoorkeeP	RudrapurDC	220
RoorkeeP	BareillyDC	255
RoorkeeP	SelakuiDC	190
RoorkeeP	RoorkeeDC	10
RoorkeeP	SrinagarDC	160
RoorkeeP	KotdwarDC 	100
RoorkeeP	HaridwarDC	32
RoorkeeP	PithoragarhDC	450
RoorkeeP	PilibhitDC	295
RoorkeeP	DelhiDC	        215
SrinagarP	KhatimaP	410
SrinagarP	ThanoP	        150
SrinagarP	BanbasaP	425
SrinagarP	HaldwaniP	360
SrinagarP	RanipokhariP	120
SrinagarP	SitarganjP	380
SrinagarP	KichhaP	        355
SrinagarP	RudrapurP	340
SrinagarP	DoiwalaP	130
SrinagarP	SelakuiP	170
SrinagarP	RoorkeeP	160
SrinagarP	SrinagarP	10000
SrinagarP	KotdwarP	135
SrinagarP	HaridwarP	130
SrinagarP	PithoragarhP	300
SrinagarP	KhatimaDC	420
SrinagarP	RishikeshDC	110
SrinagarP	ChampawatDC	420
SrinagarP	HaldwaniDC	350
SrinagarP	DehradunDC	150
SrinagarP	SitarganjDC	375
SrinagarP	KichhaDC	350
SrinagarP	RudrapurDC	340
SrinagarP	BareillyDC	390
SrinagarP	SelakuiDC	170
SrinagarP	RoorkeeDC	160
SrinagarP	SrinagarDC	10
SrinagarP	KotdwarDC 	135
SrinagarP	HaridwarDC	130
SrinagarP	PithoragarhDC	300
SrinagarP	PilibhitDC	415
SrinagarP	DelhiDC	        350
KotdwarP	KhatimaP	255
KotdwarP	ThanoP	        110
KotdwarP	BanbasaP	270
KotdwarP	HaldwaniP	205
KotdwarP	RanipokhariP	105
KotdwarP	SitarganjP	225
KotdwarP	KichhaP	        200
KotdwarP	RudrapurP	185
KotdwarP	DoiwalaP	100
KotdwarP	SelakuiP	140
KotdwarP	RoorkeeP	100
KotdwarP	SrinagarP	135
KotdwarP	KotdwarP	10000
KotdwarP	HaridwarP	70
KotdwarP	PithoragarhP	420
KotdwarP	KhatimaDC	250
KotdwarP	RishikeshDC	90
KotdwarP	ChampawatDC	350
KotdwarP	HaldwaniDC	205
KotdwarP	DehradunDC	120
KotdwarP	SitarganjDC	225
KotdwarP	KichhaDC	200
KotdwarP	RudrapurDC	190
KotdwarP	BareillyDC	240
KotdwarP	SelakuiDC	140
KotdwarP	RoorkeeDC	100
KotdwarP	SrinagarDC	135
KotdwarP	KotdwarDC 	10
KotdwarP	HaridwarDC	70
KotdwarP	PithoragarhDC	420
KotdwarP	PilibhitDC	265
KotdwarP	DelhiDC	        220
HaridwarP	KhatimaP	280
HaridwarP	ThanoP	        50
HaridwarP	BanbasaP	295
HaridwarP	HaldwaniP	230
HaridwarP	RanipokhariP	40
HaridwarP	SitarganjP	250
HaridwarP	KichhaP	        225
HaridwarP	RudrapurP	210
HaridwarP	DoiwalaP	35
HaridwarP	SelakuiP	75
HaridwarP	RoorkeeP	32
HaridwarP	SrinagarP	130
HaridwarP	KotdwarP	70
HaridwarP	HaridwarP	10000
HaridwarP	PithoragarhP	445
HaridwarP	KhatimaDC	275
HaridwarP	RishikeshDC	25
HaridwarP	ChampawatDC	370
HaridwarP	HaldwaniDC	225
HaridwarP	DehradunDC	55
HaridwarP	SitarganjDC	245
HaridwarP	KichhaDC	220
HaridwarP	RudrapurDC	210
HaridwarP	BareillyDC	265
HaridwarP	SelakuiDC	75
HaridwarP	RoorkeeDC	32
HaridwarP	SrinagarDC	130
HaridwarP	KotdwarDC 	70
HaridwarP	HaridwarDC	10
HaridwarP	PithoragarhDC	445
HaridwarP	PilibhitDC	290
HaridwarP	DelhiDC	        245
PithoragarhP	KhatimaP	200
PithoragarhP	ThanoP	        490
PithoragarhP	BanbasaP	180
PithoragarhP	HaldwaniP	245
PithoragarhP	RanipokhariP	480
PithoragarhP	SitarganjP	230
PithoragarhP	KichhaP	        255
PithoragarhP	RudrapurP	270
PithoragarhP	DoiwalaP	475
PithoragarhP	SelakuiP	515
PithoragarhP	RoorkeeP	450
PithoragarhP	SrinagarP	300
PithoragarhP	KotdwarP	420
PithoragarhP	HaridwarP	445
PithoragarhP	PithoragarhP	10000
PithoragarhP	KhatimaDC	200
PithoragarhP	RishikeshDC	470
PithoragarhP	ChampawatDC	100
PithoragarhP	HaldwaniDC	245
PithoragarhP	DehradunDC	500
PithoragarhP	SitarganjDC	200
PithoragarhP	KichhaDC	225
PithoragarhP	RudrapurDC	240
PithoragarhP	BareillyDC	260
PithoragarhP	SelakuiDC	520
PithoragarhP	RoorkeeDC	480
PithoragarhP	SrinagarDC	360
PithoragarhP	KotdwarDC 	420
PithoragarhP	HaridwarDC	450
PithoragarhP	PithoragarhDC	15
PithoragarhP	PilibhitDC	210
PithoragarhP	DelhiDC	        500
KhatimaDC	KhatimaP	15
KhatimaDC	ThanoP	        315
KhatimaDC	BanbasaP	30
KhatimaDC	HaldwaniP	80
KhatimaDC	RanipokhariP	320
KhatimaDC	SitarganjP	30
KhatimaDC	KichhaP	        55
KhatimaDC	RudrapurP	70
KhatimaDC	DoiwalaP	310
KhatimaDC	SelakuiP	350
KhatimaDC	RoorkeeP	285
KhatimaDC	SrinagarP	420
KhatimaDC	KotdwarP	250
KhatimaDC	HaridwarP	275
KhatimaDC	PithoragarhP	200
KhatimaDC	KhatimaDC	0
KhatimaDC	RishikeshDC	300
KhatimaDC	ChampawatDC	120
KhatimaDC	HaldwaniDC	80
KhatimaDC	DehradunDC	330
KhatimaDC	SitarganjDC	30
KhatimaDC	KichhaDC	55
KhatimaDC	RudrapurDC	70
KhatimaDC	BareillyDC	112
KhatimaDC	SelakuiDC	350
KhatimaDC	RoorkeeDC	310
KhatimaDC	SrinagarDC	410
KhatimaDC	KotdwarDC 	255
KhatimaDC	HaridwarDC	280
KhatimaDC	PithoragarhDC	200
KhatimaDC	PilibhitDC	39
KhatimaDC	DelhiDC	        330
RishikeshDC	KhatimaP	300
RishikeshDC	ThanoP	        30
RishikeshDC	BanbasaP	330
RishikeshDC	HaldwaniP	250
RishikeshDC	RanipokhariP	20
RishikeshDC	SitarganjP	270
RishikeshDC	KichhaP	        295
RishikeshDC	RudrapurP	280
RishikeshDC	DoiwalaP	25
RishikeshDC	SelakuiP	65
RishikeshDC	RoorkeeP	52
RishikeshDC	SrinagarP	110
RishikeshDC	KotdwarP	90
RishikeshDC	HaridwarP	25
RishikeshDC	PithoragarhP	470
RishikeshDC	KhatimaDC	300
RishikeshDC	RishikeshDC	10000
RishikeshDC	ChampawatDC	390
RishikeshDC	HaldwaniDC	245
RishikeshDC	DehradunDC	45
RishikeshDC	SitarganjDC	270
RishikeshDC	KichhaDC	245
RishikeshDC	RudrapurDC	230
RishikeshDC	BareillyDC	305
RishikeshDC	SelakuiDC	65
RishikeshDC	RoorkeeDC	50
RishikeshDC	SrinagarDC	110
RishikeshDC	KotdwarDC 	85
RishikeshDC	HaridwarDC	20
RishikeshDC	PithoragarhDC	455
RishikeshDC	PilibhitDC	300
RishikeshDC	DelhiDC	        230
ChampawatDC	KhatimaP	120
ChampawatDC	ThanoP	        410
ChampawatDC	BanbasaP	100
ChampawatDC	HaldwaniP	175
ChampawatDC	RanipokhariP	410
ChampawatDC	SitarganjP	150
ChampawatDC	KichhaP	        175
ChampawatDC	RudrapurP	19
ChampawatDC	DoiwalaP	405
ChampawatDC	SelakuiP	445
ChampawatDC	RoorkeeP	380
ChampawatDC	SrinagarP	420
ChampawatDC	KotdwarP	350
ChampawatDC	HaridwarP	370
ChampawatDC	PithoragarhP	100
ChampawatDC	KhatimaDC	120
ChampawatDC	RishikeshDC	390
ChampawatDC	ChampawatDC	10000
ChampawatDC	HaldwaniDC	175
ChampawatDC	DehradunDC	415
ChampawatDC	SitarganjDC	125
ChampawatDC	KichhaDC	150
ChampawatDC	RudrapurDC	165
ChampawatDC	BareillyDC	210
ChampawatDC	SelakuiDC	435
ChampawatDC	RoorkeeDC	370
ChampawatDC	SrinagarDC	345
ChampawatDC	KotdwarDC 	330
ChampawatDC	HaridwarDC	370
ChampawatDC	PithoragarhDC	75
ChampawatDC	PilibhitDC	135
ChampawatDC	DelhiDC	        425
HaldwaniDC	KhatimaP	80
HaldwaniDC	ThanoP	        265
HaldwaniDC	BanbasaP	100
HaldwaniDC	HaldwaniP	15
HaldwaniDC	RanipokhariP	265
HaldwaniDC	SitarganjP	50
HaldwaniDC	KichhaP	        25
HaldwaniDC	RudrapurP	32
HaldwaniDC	DoiwalaP	260
HaldwaniDC	SelakuiP	300
HaldwaniDC	RoorkeeP	235
HaldwaniDC	SrinagarP	350
HaldwaniDC	KotdwarP	205
HaldwaniDC	HaridwarP	225
HaldwaniDC	PithoragarhP	245
HaldwaniDC	KhatimaDC	80
HaldwaniDC	RishikeshDC	245
HaldwaniDC	ChampawatDC	175
HaldwaniDC	HaldwaniDC	10000
HaldwaniDC	DehradunDC	280
HaldwaniDC	SitarganjDC	50
HaldwaniDC	KichhaDC	40
HaldwaniDC	RudrapurDC	35
HaldwaniDC	BareillyDC	100
HaldwaniDC	SelakuiDC	300
HaldwaniDC	RoorkeeDC	245
HaldwaniDC	SrinagarDC	360
HaldwaniDC	KotdwarDC 	205
HaldwaniDC	HaridwarDC	230
HaldwaniDC	PithoragarhDC	245
HaldwaniDC	PilibhitDC	95
HaldwaniDC	DelhiDC	        300
DehradunDC	KhatimaP	330
DehradunDC	ThanoP	        30
DehradunDC	BanbasaP	345
DehradunDC	HaldwaniP	280
DehradunDC	RanipokhariP	30
DehradunDC	SitarganjP	300
DehradunDC	KichhaP	        275
DehradunDC	RudrapurP	260
DehradunDC	DoiwalaP	20
DehradunDC	SelakuiP	20
DehradunDC	RoorkeeP	70
DehradunDC	SrinagarP	150
DehradunDC	KotdwarP	120
DehradunDC	HaridwarP	55
DehradunDC	PithoragarhP	500
DehradunDC	KhatimaDC	330
DehradunDC	RishikeshDC	45
DehradunDC	ChampawatDC	415
DehradunDC	HaldwaniDC	280
DehradunDC	DehradunDC	10000
DehradunDC	SitarganjDC	295
DehradunDC	KichhaDC	270
DehradunDC	RudrapurDC	255
DehradunDC	BareillyDC	305
DehradunDC	SelakuiDC	25
DehradunDC	RoorkeeDC	70
DehradunDC	SrinagarDC	145
DehradunDC	KotdwarDC 	120
DehradunDC	HaridwarDC	50
DehradunDC	PithoragarhDC	490
DehradunDC	PilibhitDC	335
DehradunDC	DelhiDC	        240
SitarganjDC	KhatimaP	30
SitarganjDC	ThanoP	        290
SitarganjDC	BanbasaP	45
SitarganjDC	HaldwaniP	50
SitarganjDC	RanipokhariP	285
SitarganjDC	SitarganjP	10
SitarganjDC	KichhaP	        25
SitarganjDC	RudrapurP	40
SitarganjDC	DoiwalaP	280
SitarganjDC	SelakuiP	320
SitarganjDC	RoorkeeP	255
SitarganjDC	SrinagarP	375
SitarganjDC	KotdwarP	225
SitarganjDC	HaridwarP	245
SitarganjDC	PithoragarhP	200
SitarganjDC	KhatimaDC	30
SitarganjDC	RishikeshDC	270
SitarganjDC	ChampawatDC	125
SitarganjDC	HaldwaniDC	50
SitarganjDC	DehradunDC	295
SitarganjDC	SitarganjDC	10000
SitarganjDC	KichhaDC	25
SitarganjDC	RudrapurDC	40
SitarganjDC	BareillyDC	85
SitarganjDC	SelakuiDC	320
SitarganjDC	RoorkeeDC	280
SitarganjDC	SrinagarDC	380
SitarganjDC	KotdwarDC 	225
SitarganjDC	HaridwarDC	250
SitarganjDC	PithoragarhDC	230
SitarganjDC	PilibhitDC	80
SitarganjDC	DelhiDC	        305
KichhaDC	KhatimaP	55
KichhaDC	ThanoP	        260
KichhaDC	BanbasaP	70
KichhaDC	HaldwaniP	40
KichhaDC	RanipokhariP	260
KichhaDC	SitarganjP	25
KichhaDC	KichhaP	        10
KichhaDC	RudrapurP	15
KichhaDC	DoiwalaP	255
KichhaDC	SelakuiP	295
KichhaDC	RoorkeeP	230
KichhaDC	SrinagarP	350
KichhaDC	KotdwarP	200
KichhaDC	HaridwarP	220
KichhaDC	PithoragarhP	225
KichhaDC	KhatimaDC	55
KichhaDC	RishikeshDC	245
KichhaDC	ChampawatDC	150
KichhaDC	HaldwaniDC	40
KichhaDC	DehradunDC	270
KichhaDC	SitarganjDC	25
KichhaDC	KichhaDC	10000
KichhaDC	RudrapurDC	15
KichhaDC	BareillyDC	65
KichhaDC	SelakuiDC	295
KichhaDC	RoorkeeDC	255
KichhaDC	SrinagarDC	355
KichhaDC	KotdwarDC 	200
KichhaDC	HaridwarDC	225
KichhaDC	PithoragarhDC	255
KichhaDC	PilibhitDC	105
KichhaDC	DelhiDC	        280
RudrapurDC	KhatimaP	70
RudrapurDC	ThanoP	        250
RudrapurDC	BanbasaP	85
RudrapurDC	HaldwaniP	35
RudrapurDC	RanipokhariP	250
RudrapurDC	SitarganjP	40
RudrapurDC	KichhaP	        15
RudrapurDC	RudrapurP	10
RudrapurDC	DoiwalaP	245
RudrapurDC	SelakuiP	280
RudrapurDC	RoorkeeP	220
RudrapurDC	SrinagarP	340
RudrapurDC	KotdwarP	190
RudrapurDC	HaridwarP	210
RudrapurDC	PithoragarhP	240
RudrapurDC	KhatimaDC	70
RudrapurDC	RishikeshDC	230
RudrapurDC	ChampawatDC	165
RudrapurDC	HaldwaniDC	35
RudrapurDC	DehradunDC	255
RudrapurDC	SitarganjDC	40
RudrapurDC	KichhaDC	15
RudrapurDC	RudrapurDC	10000
RudrapurDC	BareillyDC	80
RudrapurDC	SelakuiDC	280
RudrapurDC	RoorkeeDC	240
RudrapurDC	SrinagarDC	340
RudrapurDC	KotdwarDC 	185
RudrapurDC	HaridwarDC	210
RudrapurDC	PithoragarhDC	270
RudrapurDC	PilibhitDC	120
RudrapurDC	DelhiDC	        265
BareillyDC	KhatimaP        127
BareillyDC	ThanoP	        310
BareillyDC	BanbasaP	100
BareillyDC	HaldwaniP	100
BareillyDC	RanipokhariP	300
BareillyDC	SitarganjP	85
BareillyDC	KichhaP	        65
BareillyDC	RudrapurP	80
BareillyDC	DoiwalaP	300
BareillyDC	SelakuiP	355
BareillyDC	RoorkeeP	255
BareillyDC	SrinagarP	390
BareillyDC	KotdwarP	240
BareillyDC	HaridwarP	265
BareillyDC	PithoragarhP	260
BareillyDC	KhatimaDC	112
BareillyDC	RishikeshDC	305
BareillyDC	ChampawatDC	210
BareillyDC	HaldwaniDC	100
BareillyDC	DehradunDC	305
BareillyDC	SitarganjDC	85
BareillyDC	KichhaDC	65
BareillyDC	RudrapurDC	80
BareillyDC	BareillyDC	0
BareillyDC	SelakuiDC	350
BareillyDC	RoorkeeDC	250
BareillyDC	SrinagarDC	405
BareillyDC	KotdwarDC 	230
BareillyDC	HaridwarDC	285
BareillyDC	PithoragarhDC	280
BareillyDC	PilibhitDC	51
BareillyDC	DelhiDC	        290
SelakuiDC	KhatimaP	350
SelakuiDC	ThanoP	        50
SelakuiDC	BanbasaP	365
SelakuiDC	HaldwaniP	300
SelakuiDC	RanipokhariP	50
SelakuiDC	SitarganjP	320
SelakuiDC	KichhaP	        295
SelakuiDC	RudrapurP	280
SelakuiDC	DoiwalaP	40
SelakuiDC	SelakuiP	10
SelakuiDC	RoorkeeP	190
SelakuiDC	SrinagarP	170
SelakuiDC	KotdwarP	140
SelakuiDC	HaridwarP	75
SelakuiDC	PithoragarhP	520
SelakuiDC	KhatimaDC	350
SelakuiDC	RishikeshDC	65
SelakuiDC	ChampawatDC	435
SelakuiDC	HaldwaniDC	300
SelakuiDC	DehradunDC	25
SelakuiDC	SitarganjDC	320
SelakuiDC	KichhaDC	295
SelakuiDC	RudrapurDC	280
SelakuiDC	BareillyDC	350
SelakuiDC	SelakuiDC	10000
SelakuiDC	RoorkeeDC	90
SelakuiDC	SrinagarDC	170
SelakuiDC	KotdwarDC 	140
SelakuiDC	HaridwarDC	75
SelakuiDC	PithoragarhDC	515
SelakuiDC	PilibhitDC	360
SelakuiDC	DelhiDC	        255
RoorkeeDC	KhatimaP	310
RoorkeeDC	ThanoP	        75
RoorkeeDC	BanbasaP	325
RoorkeeDC	HaldwaniP	245
RoorkeeDC	RanipokhariP	70
RoorkeeDC	SitarganjP	280
RoorkeeDC	KichhaP	        255
RoorkeeDC	RudrapurP	240
RoorkeeDC	DoiwalaP	65
RoorkeeDC	SelakuiP	90
RoorkeeDC	RoorkeeP	10
RoorkeeDC	SrinagarP	160
RoorkeeDC	KotdwarP	100
RoorkeeDC	HaridwarP	32
RoorkeeDC	PithoragarhP	480
RoorkeeDC	KhatimaDC	310
RoorkeeDC	RishikeshDC	50
RoorkeeDC	ChampawatDC	370
RoorkeeDC	HaldwaniDC	245
RoorkeeDC	DehradunDC	70
RoorkeeDC	SitarganjDC	280
RoorkeeDC	KichhaDC	255
RoorkeeDC	RudrapurDC	240
RoorkeeDC	BareillyDC	250
RoorkeeDC	SelakuiDC	90
RoorkeeDC	RoorkeeDC	10000
RoorkeeDC	SrinagarDC	160
RoorkeeDC	KotdwarDC 	100
RoorkeeDC	HaridwarDC	32
RoorkeeDC	PithoragarhDC	450
RoorkeeDC	PilibhitDC	295
RoorkeeDC	DelhiDC	        215
SrinagarDC	KhatimaP	410
SrinagarDC	ThanoP	        150
SrinagarDC	BanbasaP	425
SrinagarDC	HaldwaniP	360
SrinagarDC	RanipokhariP	120
SrinagarDC	SitarganjP	380
SrinagarDC	KichhaP	        355
SrinagarDC	RudrapurP	340
SrinagarDC	DoiwalaP	130
SrinagarDC	SelakuiP	170
SrinagarDC	RoorkeeP	160
SrinagarDC	SrinagarP	10
SrinagarDC	KotdwarP	135
SrinagarDC	HaridwarP	130
SrinagarDC	PithoragarhP	360
SrinagarDC	KhatimaDC	410
SrinagarDC	RishikeshDC	110
SrinagarDC	ChampawatDC	345
SrinagarDC	HaldwaniDC	360
SrinagarDC	DehradunDC	145
SrinagarDC	SitarganjDC	380
SrinagarDC	KichhaDC	355
SrinagarDC	RudrapurDC	340
SrinagarDC	BareillyDC	405
SrinagarDC	SelakuiDC	170
SrinagarDC	RoorkeeDC	160
SrinagarDC	SrinagarDC	10000
SrinagarDC	KotdwarDC 	135
SrinagarDC	HaridwarDC	130
SrinagarDC	PithoragarhDC	300
SrinagarDC	PilibhitDC	415
SrinagarDC	DelhiDC	        350
KotdwarDC 	KhatimaP	255
KotdwarDC 	ThanoP	        110
KotdwarDC 	BanbasaP	270
KotdwarDC 	HaldwaniP	205
KotdwarDC 	RanipokhariP	105
KotdwarDC 	SitarganjP	225
KotdwarDC 	KichhaP	        200
KotdwarDC 	RudrapurP	185
KotdwarDC 	DoiwalaP	100
KotdwarDC 	SelakuiP	140
KotdwarDC 	RoorkeeP	100
KotdwarDC 	SrinagarP	135
KotdwarDC 	KotdwarP	10
KotdwarDC 	HaridwarP	70
KotdwarDC 	PithoragarhP	420
KotdwarDC 	KhatimaDC	255
KotdwarDC 	RishikeshDC	85
KotdwarDC 	ChampawatDC	330
KotdwarDC 	HaldwaniDC	205
KotdwarDC 	DehradunDC	120
KotdwarDC 	SitarganjDC	225
KotdwarDC 	KichhaDC	200
KotdwarDC 	RudrapurDC	185
KotdwarDC 	BareillyDC	230
KotdwarDC 	SelakuiDC	140
KotdwarDC 	RoorkeeDC	100
KotdwarDC 	SrinagarDC	135
KotdwarDC 	KotdwarDC 	10000
KotdwarDC 	HaridwarDC	70
KotdwarDC 	PithoragarhDC	420
KotdwarDC 	PilibhitDC	265
KotdwarDC 	DelhiDC	        220
HaridwarDC	KhatimaP	280
HaridwarDC	ThanoP	        50
HaridwarDC	BanbasaP	295
HaridwarDC	HaldwaniP	230
HaridwarDC	RanipokhariP	40
HaridwarDC	SitarganjP	250
HaridwarDC	KichhaP	        225
HaridwarDC	RudrapurP	210
HaridwarDC	DoiwalaP	35
HaridwarDC	SelakuiP	75
HaridwarDC	RoorkeeP	32
HaridwarDC	SrinagarP	130
HaridwarDC	KotdwarP	70
HaridwarDC	HaridwarP	10
HaridwarDC	PithoragarhP	450
HaridwarDC	KhatimaDC	280
HaridwarDC	RishikeshDC	20
HaridwarDC	ChampawatDC	370
HaridwarDC	HaldwaniDC	230
HaridwarDC	DehradunDC	50
HaridwarDC	SitarganjDC	250
HaridwarDC	KichhaDC	225
HaridwarDC	RudrapurDC	210
HaridwarDC	BareillyDC	285
HaridwarDC	SelakuiDC	75
HaridwarDC	RoorkeeDC	32
HaridwarDC	SrinagarDC	130
HaridwarDC	KotdwarDC 	70
HaridwarDC	HaridwarDC	10000
HaridwarDC	PithoragarhDC	445
HaridwarDC	PilibhitDC	290
HaridwarDC	DelhiDC	        245
PithoragarhDC	KhatimaP	200
PithoragarhDC	ThanoP	        490
PithoragarhDC	BanbasaP	180
PithoragarhDC	HaldwaniP	245
PithoragarhDC	RanipokhariP	480
PithoragarhDC	SitarganjP	230
PithoragarhDC	KichhaP	        255
PithoragarhDC	RudrapurP	270
PithoragarhDC	DoiwalaP	475
PithoragarhDC	SelakuiP	515
PithoragarhDC	RoorkeeP	450
PithoragarhDC	SrinagarP	300
PithoragarhDC	KotdwarP	420
PithoragarhDC	HaridwarP	445
PithoragarhDC	PithoragarhP	15
PithoragarhDC	KhatimaDC	200
PithoragarhDC	RishikeshDC	455
PithoragarhDC	ChampawatDC	75
PithoragarhDC	HaldwaniDC	245
PithoragarhDC	DehradunDC	490
PithoragarhDC	SitarganjDC	230
PithoragarhDC	KichhaDC	255
PithoragarhDC	RudrapurDC	270
PithoragarhDC	BareillyDC	280
PithoragarhDC	SelakuiDC	515
PithoragarhDC	RoorkeeDC	450
PithoragarhDC	SrinagarDC	300
PithoragarhDC	KotdwarDC 	420
PithoragarhDC	HaridwarDC	445
PithoragarhDC	PithoragarhDC	10000
PithoragarhDC	PilibhitDC	210
PithoragarhDC	DelhiDC	        500
PilibhitDC	KhatimaP	54
PilibhitDC	ThanoP	        330
PilibhitDC	BanbasaP	65
PilibhitDC	HaldwaniP	95
PilibhitDC	RanipokhariP	325
PilibhitDC	SitarganjP	80
PilibhitDC	KichhaP	        105
PilibhitDC	RudrapurP	120
PilibhitDC	DoiwalaP	320
PilibhitDC	SelakuiP	360
PilibhitDC	RoorkeeP	295
PilibhitDC	SrinagarP	415
PilibhitDC	KotdwarP	265
PilibhitDC	HaridwarP	290
PilibhitDC	PithoragarhP	210
PilibhitDC	KhatimaDC	39
PilibhitDC	RishikeshDC	300
PilibhitDC	ChampawatDC	135
PilibhitDC	HaldwaniDC	95
PilibhitDC	DehradunDC	335
PilibhitDC	SitarganjDC	80
PilibhitDC	KichhaDC	105
PilibhitDC	RudrapurDC	120
PilibhitDC	BareillyDC	51
PilibhitDC	SelakuiDC	360
PilibhitDC	RoorkeeDC	295
PilibhitDC	SrinagarDC	415
PilibhitDC	KotdwarDC 	265
PilibhitDC	HaridwarDC	290
PilibhitDC	PithoragarhDC	210
PilibhitDC	PilibhitDC	0
PilibhitDC	DelhiDC	        325
DelhiDC	KhatimaP	330
DelhiDC	ThanoP	        285
DelhiDC	BanbasaP	345
DelhiDC	HaldwaniP	300
DelhiDC	RanipokhariP	280
DelhiDC	SitarganjP	305
DelhiDC	KichhaP	        280
DelhiDC	RudrapurP	265
DelhiDC	DoiwalaP	275
DelhiDC	SelakuiP	255
DelhiDC	RoorkeeP	215
DelhiDC	SrinagarP	350
DelhiDC	KotdwarP	220
DelhiDC	HaridwarP	245
DelhiDC	PithoragarhP	500
DelhiDC	KhatimaDC	330
DelhiDC	RishikeshDC	230
DelhiDC	ChampawatDC	425
DelhiDC	HaldwaniDC	300
DelhiDC	DehradunDC	240
DelhiDC	SitarganjDC	305
DelhiDC	KichhaDC	280
DelhiDC	RudrapurDC	265
DelhiDC	BareillyDC	290
DelhiDC	SelakuiDC	255
DelhiDC	RoorkeeDC	215
DelhiDC	SrinagarDC	350
DelhiDC	KotdwarDC 	220
DelhiDC	HaridwarDC	245
DelhiDC	PithoragarhDC	500
DelhiDC	PilibhitDC	325
DelhiDC	DelhiDC	        10000
;